TOUR:
 1 93 28 67 58 61 25 81 69 73 64 40 54 2 44 50 68 85 39 30 96 82 95 13 76 33 37 5 78 52 48 100 41 71 14 3 43 46 29 34 83 55 7 9 57 87 51 77 20 12 27 86 35 62 60 23 98 45 91 47 32 11 15 17 59 74 21 72 84 10 90 53 79 18 24 38 36 99 94 88 16 22 70 66 26 65 4 97 56 80 31 89 42 8 75 19 49 6 63 92
COST = 23239
